min: x0 + x1 + x2 + x3 + x4 + x5 + x6 + x7 + x8 + x9 + x10;
x2 = 0; 
e2_0_0 = 3;
e0_0_0 + 7 x6 >= 7;
y0 + y1 = e0_0_0;
y0 <= e0_0_0;
y1 <= e0_0_0;
x6 + y1 <= e0_0_0;
x6 + y1 >= 1;
-y0 + e6_0_0 - 1 = 0 ;
e1_0_0 + 7 x3 >= 7;
y2 + y3 = e1_0_0;
y2 <= e1_0_0;
y3 <= e1_0_0;
x3 + y3 <= e1_0_0;
x3 + y3 >= 1;
e1_0_1 + 7 x3 >= 7;
y4 + y5 = e1_0_1;
y4 <= e1_0_1;
y5 <= e1_0_1;
x3 + y5 <= e1_0_1;
x3 + y5 >= 1;
e1_0_2 + 7 x3 >= 7;
y6 + y7 = e1_0_2;
y6 <= e1_0_2;
y7 <= e1_0_2;
x3 + y7 <= e1_0_2;
x3 + y7 >= 1;
e1_0_3 + 7 x3 >= 7;
y8 + y9 = e1_0_3;
y8 <= e1_0_3;
y9 <= e1_0_3;
x3 + y9 <= e1_0_3;
x3 + y9 >= 1;
e1_0_4 + 7 x3 >= 7;
y10 + y11 = e1_0_4;
y10 <= e1_0_4;
y11 <= e1_0_4;
x3 + y11 <= e1_0_4;
x3 + y11 >= 1;
e1_0_5 + 7 x3 >= 7;
y12 + y13 = e1_0_5;
y12 <= e1_0_5;
y13 <= e1_0_5;
x3 + y13 <= e1_0_5;
x3 + y13 >= 1;
e1_0_6 + 7 x3 >= 7;
y14 + y15 = e1_0_6;
y14 <= e1_0_6;
y15 <= e1_0_6;
x3 + y15 <= e1_0_6;
x3 + y15 >= 1;
e1_0_7 + 7 x3 >= 7;
y16 + y17 = e1_0_7;
y16 <= e1_0_7;
y17 <= e1_0_7;
x3 + y17 <= e1_0_7;
x3 + y17 >= 1;
e2_0_0 + 7 x0 >= 7;
y18 + y19 = e2_0_0;
y18 <= e2_0_0;
y19 <= e2_0_0;
x0 + y19 <= e2_0_0;
x0 + y19 >= 1;
-y18 + e0_0_0 - 6 = 0 ;
e4_2_0 + 7 x5 >= 7;
y20 + y21 = e4_2_0;
y20 <= e4_2_0;
y21 <= e4_2_0;
x5 + y21 <= e4_2_0;
x5 + y21 >= 1;
-y20 + e5_3_0 - 19 = 0 ;
e4_2_1 + 7 x5 >= 7;
y22 + y23 = e4_2_1;
y22 <= e4_2_1;
y23 <= e4_2_1;
x5 + y23 <= e4_2_1;
x5 + y23 >= 1;
-y22 + e5_3_1 - 19 = 0 ;
e4_3_0 + 7 x1 >= 7;
y24 + y25 = e4_3_0;
y24 <= e4_3_0;
y25 <= e4_3_0;
x1 + y25 <= e4_3_0;
x1 + y25 >= 1;
-y24 + e1_0_0 - 4 = 0 ;
e4_3_1 + 7 x1 >= 7;
y26 + y27 = e4_3_1;
y26 <= e4_3_1;
y27 <= e4_3_1;
x1 + y27 <= e4_3_1;
x1 + y27 >= 1;
-y26 + e1_0_1 - 4 = 0 ;
e5_3_0 + 7 x1 >= 7;
y28 + y29 = e5_3_0;
y28 <= e5_3_0;
y29 <= e5_3_0;
x1 + y29 <= e5_3_0;
x1 + y29 >= 1;
-y28 + e1_0_2 - 4 = 0 ;
e5_3_1 + 7 x1 >= 7;
y30 + y31 = e5_3_1;
y30 <= e5_3_1;
y31 <= e5_3_1;
x1 + y31 <= e5_3_1;
x1 + y31 >= 1;
-y30 + e1_0_3 - 4 = 0 ;
e5_3_2 + 7 x1 >= 7;
y32 + y33 = e5_3_2;
y32 <= e5_3_2;
y33 <= e5_3_2;
x1 + y33 <= e5_3_2;
x1 + y33 >= 1;
-y32 + e1_0_4 - 4 = 0 ;
e5_3_3 + 7 x1 >= 7;
y34 + y35 = e5_3_3;
y34 <= e5_3_3;
y35 <= e5_3_3;
x1 + y35 <= e5_3_3;
x1 + y35 >= 1;
-y34 + e1_0_5 - 4 = 0 ;
e6_0_0 + 7 x7 >= 7;
y36 + y37 = e6_0_0;
y36 <= e6_0_0;
y37 <= e6_0_0;
x7 + y37 <= e6_0_0;
x7 + y37 >= 1;
-y36 + e7_0_0 - 1 = 0 ;
e7_0_0 + 7 x8 >= 7;
y38 + y39 = e7_0_0;
y38 <= e7_0_0;
y39 <= e7_0_0;
x8 + y39 <= e7_0_0;
x8 + y39 >= 1;
-y38 + e8_0_0 - 19 = 0 ;
-y38 + e8_1_0 - 28 = 0 ;
-y38 + e8_2_0 - 28 = 0 ;
-y38 + e8_3_0 - 15 = 0 ;
e8_0_0 + 7 x9 >= 7;
y40 + y41 = e8_0_0;
y40 <= e8_0_0;
y41 <= e8_0_0;
x9 + y41 <= e8_0_0;
x9 + y41 >= 1;
-y40 + e9_1_0 - 4 = 0 ;
e8_1_0 + 7 x4 >= 7;
y42 + y43 = e8_1_0;
y42 <= e8_1_0;
y43 <= e8_1_0;
x4 + y43 <= e8_1_0;
x4 + y43 >= 1;
-y42 + e4_2_0 - 32 = 0 ;
-y42 + e4_3_0 - 19 = 0 ;
e8_2_0 + 7 x5 >= 7;
y44 + y45 = e8_2_0;
y44 <= e8_2_0;
y45 <= e8_2_0;
x5 + y45 <= e8_2_0;
x5 + y45 >= 1;
-y44 + e5_3_2 - 19 = 0 ;
e8_3_0 + 7 x1 >= 7;
y46 + y47 = e8_3_0;
y46 <= e8_3_0;
y47 <= e8_3_0;
x1 + y47 <= e8_3_0;
x1 + y47 >= 1;
-y46 + e1_0_6 - 4 = 0 ;
e9_1_0 + 7 x10 >= 7;
y48 + y49 = e9_1_0;
y48 <= e9_1_0;
y49 <= e9_1_0;
x10 + y49 <= e9_1_0;
x10 + y49 >= 1;
-y48 + e10_0_0 - 33 = 0 ;
-y48 + e10_1_0 - 33 = 0 ;
-y48 + e10_2_0 - 20 = 0 ;
e10_0_0 + 7 x4 >= 7;
y50 + y51 = e10_0_0;
y50 <= e10_0_0;
y51 <= e10_0_0;
x4 + y51 <= e10_0_0;
x4 + y51 >= 1;
-y50 + e4_2_1 - 32 = 0 ;
-y50 + e4_3_1 - 19 = 0 ;
e10_1_0 + 7 x5 >= 7;
y52 + y53 = e10_1_0;
y52 <= e10_1_0;
y53 <= e10_1_0;
x5 + y53 <= e10_1_0;
x5 + y53 >= 1;
-y52 + e5_3_3 - 19 = 0 ;
e10_2_0 + 7 x1 >= 7;
y54 + y55 = e10_2_0;
y54 <= e10_2_0;
y55 <= e10_2_0;
x1 + y55 <= e10_2_0;
x1 + y55 >= 1;
-y54 + e1_0_7 - 4 = 0 ;
-y20 + e5_0_B_0_0 - 23 = 0 ;
e5_0_B_0_0 + 7 x9 >= 7;
y56 + y57 = e5_0_B_0_0;
y56 <= e5_0_B_0_0;
y57 <= e5_0_B_0_0;
x9 + y57 <= e5_0_B_0_0;
x9 + y57 >= 1;
-y56 + e9_1_B_0_0 - 4 = 0 ;
-y22 + e5_0_B_0_1 - 23 = 0 ;
e5_0_B_0_1 + 7 x9 >= 7;
y58 + y59 = e5_0_B_0_1;
y58 <= e5_0_B_0_1;
y59 <= e5_0_B_0_1;
x9 + y59 <= e5_0_B_0_1;
x9 + y59 >= 1;
-y58 + e9_1_B_0_1 - 4 = 0 ;
-y44 + e5_0_B_0_2 - 23 = 0 ;
e5_0_B_0_2 + 7 x9 >= 7;
y60 + y61 = e5_0_B_0_2;
y60 <= e5_0_B_0_2;
y61 <= e5_0_B_0_2;
x9 + y61 <= e5_0_B_0_2;
x9 + y61 >= 1;
-y60 + e9_1_B_0_2 - 4 = 0 ;
-y52 + e5_0_B_0_3 - 23 = 0 ;
e5_0_B_0_3 + 7 x9 >= 7;
y62 + y63 = e5_0_B_0_3;
y62 <= e5_0_B_0_3;
y63 <= e5_0_B_0_3;
x9 + y63 <= e5_0_B_0_3;
x9 + y63 >= 1;
-y62 + e9_1_B_0_3 - 4 = 0 ;
e9_1_B_0_0 + 7 x10 >= 7;
y64 + y65 = e9_1_B_0_0;
y64 <= e9_1_B_0_0;
y65 <= e9_1_B_0_0;
x10 + y65 <= e9_1_B_0_0;
x10 + y65 >= 1;
-y64 + e10_0_B_0_0 - 33 = 0 ;
e9_1_B_0_1 + 7 x10 >= 7;
y66 + y67 = e9_1_B_0_1;
y66 <= e9_1_B_0_1;
y67 <= e9_1_B_0_1;
x10 + y67 <= e9_1_B_0_1;
x10 + y67 >= 1;
-y66 + e10_0_B_0_1 - 33 = 0 ;
e9_1_B_0_2 + 7 x10 >= 7;
y68 + y69 = e9_1_B_0_2;
y68 <= e9_1_B_0_2;
y69 <= e9_1_B_0_2;
x10 + y69 <= e9_1_B_0_2;
x10 + y69 >= 1;
-y68 + e10_0_B_0_2 - 33 = 0 ;
e9_1_B_0_3 + 7 x10 >= 7;
y70 + y71 = e9_1_B_0_3;
y70 <= e9_1_B_0_3;
y71 <= e9_1_B_0_3;
x10 + y71 <= e9_1_B_0_3;
x10 + y71 >= 1;
-y70 + e10_0_B_0_3 - 33 = 0 ;
e10_0_B_0_0 + 7 x4 >= 7;
y72 + y73 = e10_0_B_0_0;
y72 <= e10_0_B_0_0;
y73 <= e10_0_B_0_0;
x4 + y73 <= e10_0_B_0_0;
x4 + y73 >= 1;
-y72 + e4_2_B_0_0 - 32 = 0 ;
e10_0_B_0_1 + 7 x4 >= 7;
y74 + y75 = e10_0_B_0_1;
y74 <= e10_0_B_0_1;
y75 <= e10_0_B_0_1;
x4 + y75 <= e10_0_B_0_1;
x4 + y75 >= 1;
-y74 + e4_2_B_0_1 - 32 = 0 ;
e10_0_B_0_2 + 7 x4 >= 7;
y76 + y77 = e10_0_B_0_2;
y76 <= e10_0_B_0_2;
y77 <= e10_0_B_0_2;
x4 + y77 <= e10_0_B_0_2;
x4 + y77 >= 1;
-y76 + e4_2_B_0_2 - 32 = 0 ;
e10_0_B_0_3 + 7 x4 >= 7;
y78 + y79 = e10_0_B_0_3;
y78 <= e10_0_B_0_3;
y79 <= e10_0_B_0_3;
x4 + y79 <= e10_0_B_0_3;
x4 + y79 >= 1;
-y78 + e4_2_B_0_3 - 32 = 0 ;
e4_2_B_0_0 + 7 x5 >= 7;
y80 + y81 = e4_2_B_0_0;
y80 <= e4_2_B_0_0;
y81 <= e4_2_B_0_0;
x5 + y81 <= e4_2_B_0_0;
x5 + y81 >= 1;
e4_2_B_0_1 + 7 x5 >= 7;
y82 + y83 = e4_2_B_0_1;
y82 <= e4_2_B_0_1;
y83 <= e4_2_B_0_1;
x5 + y83 <= e4_2_B_0_1;
x5 + y83 >= 1;
e4_2_B_0_2 + 7 x5 >= 7;
y84 + y85 = e4_2_B_0_2;
y84 <= e4_2_B_0_2;
y85 <= e4_2_B_0_2;
x5 + y85 <= e4_2_B_0_2;
x5 + y85 >= 1;
e4_2_B_0_3 + 7 x5 >= 7;
y86 + y87 = e4_2_B_0_3;
y86 <= e4_2_B_0_3;
y87 <= e4_2_B_0_3;
x5 + y87 <= e4_2_B_0_3;
x5 + y87 >= 1;
-y42 + e4_0_B_1_0 - 23 = 0 ;
e4_0_B_1_0 + 7 x9 >= 7;
y88 + y89 = e4_0_B_1_0;
y88 <= e4_0_B_1_0;
y89 <= e4_0_B_1_0;
x9 + y89 <= e4_0_B_1_0;
x9 + y89 >= 1;
-y88 + e9_1_B_1_0 - 4 = 0 ;
-y50 + e4_0_B_1_1 - 23 = 0 ;
e4_0_B_1_1 + 7 x9 >= 7;
y90 + y91 = e4_0_B_1_1;
y90 <= e4_0_B_1_1;
y91 <= e4_0_B_1_1;
x9 + y91 <= e4_0_B_1_1;
x9 + y91 >= 1;
-y90 + e9_1_B_1_1 - 4 = 0 ;
e9_1_B_1_0 + 7 x10 >= 7;
y92 + y93 = e9_1_B_1_0;
y92 <= e9_1_B_1_0;
y93 <= e9_1_B_1_0;
x10 + y93 <= e9_1_B_1_0;
x10 + y93 >= 1;
-y92 + e10_0_B_1_0 - 33 = 0 ;
e9_1_B_1_1 + 7 x10 >= 7;
y94 + y95 = e9_1_B_1_1;
y94 <= e9_1_B_1_1;
y95 <= e9_1_B_1_1;
x10 + y95 <= e9_1_B_1_1;
x10 + y95 >= 1;
-y94 + e10_0_B_1_1 - 33 = 0 ;
e10_0_B_1_0 + 7 x4 >= 7;
y96 + y97 = e10_0_B_1_0;
y96 <= e10_0_B_1_0;
y97 <= e10_0_B_1_0;
x4 + y97 <= e10_0_B_1_0;
x4 + y97 >= 1;
e10_0_B_1_1 + 7 x4 >= 7;
y98 + y99 = e10_0_B_1_1;
y98 <= e10_0_B_1_1;
y99 <= e10_0_B_1_1;
x4 + y99 <= e10_0_B_1_1;
x4 + y99 >= 1;
-y20 + e5_0_B_1_0 - 23 = 0 ;
e5_0_B_1_0 + 7 x9 >= 7;
y100 + y101 = e5_0_B_1_0;
y100 <= e5_0_B_1_0;
y101 <= e5_0_B_1_0;
x9 + y101 <= e5_0_B_1_0;
x9 + y101 >= 1;
-y100 + e9_1_B_2_0 - 4 = 0 ;
-y22 + e5_0_B_1_1 - 23 = 0 ;
e5_0_B_1_1 + 7 x9 >= 7;
y102 + y103 = e5_0_B_1_1;
y102 <= e5_0_B_1_1;
y103 <= e5_0_B_1_1;
x9 + y103 <= e5_0_B_1_1;
x9 + y103 >= 1;
-y102 + e9_1_B_2_1 - 4 = 0 ;
-y44 + e5_0_B_1_2 - 23 = 0 ;
e5_0_B_1_2 + 7 x9 >= 7;
y104 + y105 = e5_0_B_1_2;
y104 <= e5_0_B_1_2;
y105 <= e5_0_B_1_2;
x9 + y105 <= e5_0_B_1_2;
x9 + y105 >= 1;
-y104 + e9_1_B_2_2 - 4 = 0 ;
-y52 + e5_0_B_1_3 - 23 = 0 ;
e5_0_B_1_3 + 7 x9 >= 7;
y106 + y107 = e5_0_B_1_3;
y106 <= e5_0_B_1_3;
y107 <= e5_0_B_1_3;
x9 + y107 <= e5_0_B_1_3;
x9 + y107 >= 1;
-y106 + e9_1_B_2_3 - 4 = 0 ;
e9_1_B_2_0 + 7 x10 >= 7;
y108 + y109 = e9_1_B_2_0;
y108 <= e9_1_B_2_0;
y109 <= e9_1_B_2_0;
x10 + y109 <= e9_1_B_2_0;
x10 + y109 >= 1;
-y108 + e10_1_B_2_0 - 33 = 0 ;
e9_1_B_2_1 + 7 x10 >= 7;
y110 + y111 = e9_1_B_2_1;
y110 <= e9_1_B_2_1;
y111 <= e9_1_B_2_1;
x10 + y111 <= e9_1_B_2_1;
x10 + y111 >= 1;
-y110 + e10_1_B_2_1 - 33 = 0 ;
e9_1_B_2_2 + 7 x10 >= 7;
y112 + y113 = e9_1_B_2_2;
y112 <= e9_1_B_2_2;
y113 <= e9_1_B_2_2;
x10 + y113 <= e9_1_B_2_2;
x10 + y113 >= 1;
-y112 + e10_1_B_2_2 - 33 = 0 ;
e9_1_B_2_3 + 7 x10 >= 7;
y114 + y115 = e9_1_B_2_3;
y114 <= e9_1_B_2_3;
y115 <= e9_1_B_2_3;
x10 + y115 <= e9_1_B_2_3;
x10 + y115 >= 1;
-y114 + e10_1_B_2_3 - 33 = 0 ;
e10_1_B_2_0 + 7 x5 >= 7;
y116 + y117 = e10_1_B_2_0;
y116 <= e10_1_B_2_0;
y117 <= e10_1_B_2_0;
x5 + y117 <= e10_1_B_2_0;
x5 + y117 >= 1;
e10_1_B_2_1 + 7 x5 >= 7;
y118 + y119 = e10_1_B_2_1;
y118 <= e10_1_B_2_1;
y119 <= e10_1_B_2_1;
x5 + y119 <= e10_1_B_2_1;
x5 + y119 >= 1;
e10_1_B_2_2 + 7 x5 >= 7;
y120 + y121 = e10_1_B_2_2;
y120 <= e10_1_B_2_2;
y121 <= e10_1_B_2_2;
x5 + y121 <= e10_1_B_2_2;
x5 + y121 >= 1;
e10_1_B_2_3 + 7 x5 >= 7;
y122 + y123 = e10_1_B_2_3;
y122 <= e10_1_B_2_3;
y123 <= e10_1_B_2_3;
x5 + y123 <= e10_1_B_2_3;
x5 + y123 >= 1;
-y20 + e5_1_B_2_0 - 32 = 0 ;
e5_1_B_2_0 + 7 x4 >= 7;
y124 + y125 = e5_1_B_2_0;
y124 <= e5_1_B_2_0;
y125 <= e5_1_B_2_0;
x4 + y125 <= e5_1_B_2_0;
x4 + y125 >= 1;
-y124 + e4_2_B_2_0 - 32 = 0 ;
-y22 + e5_1_B_2_1 - 32 = 0 ;
e5_1_B_2_1 + 7 x4 >= 7;
y126 + y127 = e5_1_B_2_1;
y126 <= e5_1_B_2_1;
y127 <= e5_1_B_2_1;
x4 + y127 <= e5_1_B_2_1;
x4 + y127 >= 1;
-y126 + e4_2_B_2_1 - 32 = 0 ;
-y44 + e5_1_B_2_2 - 32 = 0 ;
e5_1_B_2_2 + 7 x4 >= 7;
y128 + y129 = e5_1_B_2_2;
y128 <= e5_1_B_2_2;
y129 <= e5_1_B_2_2;
x4 + y129 <= e5_1_B_2_2;
x4 + y129 >= 1;
-y128 + e4_2_B_2_2 - 32 = 0 ;
-y52 + e5_1_B_2_3 - 32 = 0 ;
e5_1_B_2_3 + 7 x4 >= 7;
y130 + y131 = e5_1_B_2_3;
y130 <= e5_1_B_2_3;
y131 <= e5_1_B_2_3;
x4 + y131 <= e5_1_B_2_3;
x4 + y131 >= 1;
-y130 + e4_2_B_2_3 - 32 = 0 ;
e4_2_B_2_0 + 7 x5 >= 7;
y132 + y133 = e4_2_B_2_0;
y132 <= e4_2_B_2_0;
y133 <= e4_2_B_2_0;
x5 + y133 <= e4_2_B_2_0;
x5 + y133 >= 1;
e4_2_B_2_1 + 7 x5 >= 7;
y134 + y135 = e4_2_B_2_1;
y134 <= e4_2_B_2_1;
y135 <= e4_2_B_2_1;
x5 + y135 <= e4_2_B_2_1;
x5 + y135 >= 1;
e4_2_B_2_2 + 7 x5 >= 7;
y136 + y137 = e4_2_B_2_2;
y136 <= e4_2_B_2_2;
y137 <= e4_2_B_2_2;
x5 + y137 <= e4_2_B_2_2;
x5 + y137 >= 1;
e4_2_B_2_3 + 7 x5 >= 7;
y138 + y139 = e4_2_B_2_3;
y138 <= e4_2_B_2_3;
y139 <= e4_2_B_2_3;
x5 + y139 <= e4_2_B_2_3;
x5 + y139 >= 1;
-y40 + e9_0_B_3_0 - 28 = 0 ;
e9_0_B_3_0 + 7 x9 >= 7;
y140 + y141 = e9_0_B_3_0;
y140 <= e9_0_B_3_0;
y141 <= e9_0_B_3_0;
x9 + y141 <= e9_0_B_3_0;
x9 + y141 >= 1;
-y42 + e4_1_B_3_0 - 32 = 0 ;
e4_1_B_3_0 + 7 x4 >= 7;
y142 + y143 = e4_1_B_3_0;
y142 <= e4_1_B_3_0;
y143 <= e4_1_B_3_0;
x4 + y143 <= e4_1_B_3_0;
x4 + y143 >= 1;
-y50 + e4_1_B_3_1 - 32 = 0 ;
e4_1_B_3_1 + 7 x4 >= 7;
y144 + y145 = e4_1_B_3_1;
y144 <= e4_1_B_3_1;
y145 <= e4_1_B_3_1;
x4 + y145 <= e4_1_B_3_1;
x4 + y145 >= 1;
-y20 + e5_2_B_3_0 - 32 = 0 ;
e5_2_B_3_0 + 7 x5 >= 7;
y146 + y147 = e5_2_B_3_0;
y146 <= e5_2_B_3_0;
y147 <= e5_2_B_3_0;
x5 + y147 <= e5_2_B_3_0;
x5 + y147 >= 1;
-y22 + e5_2_B_3_1 - 32 = 0 ;
e5_2_B_3_1 + 7 x5 >= 7;
y148 + y149 = e5_2_B_3_1;
y148 <= e5_2_B_3_1;
y149 <= e5_2_B_3_1;
x5 + y149 <= e5_2_B_3_1;
x5 + y149 >= 1;
-y44 + e5_2_B_3_2 - 32 = 0 ;
e5_2_B_3_2 + 7 x5 >= 7;
y150 + y151 = e5_2_B_3_2;
y150 <= e5_2_B_3_2;
y151 <= e5_2_B_3_2;
x5 + y151 <= e5_2_B_3_2;
x5 + y151 >= 1;
-y52 + e5_2_B_3_3 - 32 = 0 ;
e5_2_B_3_3 + 7 x5 >= 7;
y152 + y153 = e5_2_B_3_3;
y152 <= e5_2_B_3_3;
y153 <= e5_2_B_3_3;
x5 + y153 <= e5_2_B_3_3;
x5 + y153 >= 1;
bin x0,x1,x1,x2,x2,x3,x3,x4,x4,x5,x6,x7,x8,x9,x10;
int x0,x1,x2,x3,x4,x5,x6,x7,x8,x9,x10,x11,x12,x13,x14,x15,x16,x17,x18,x19,x20,x21,x22,x23,x24,x25,x26,x27,x28,x29,x30,x31,x32,x33,x34,x35,x36,x37,x38,x39,x40,x41,x42,x43,x44,x45,x46,x47,x48,x49,x50,x51,x52,x53,x54,x55,x56,x57,x58,x59,x60,x61,x62,x63,x64,x65,x66,x67,x68,x69,x70,x71,x72,x73,x74,x75,x76,x77,x78,x79,x80,x81,x82,x83,x84,x85,x86,x87,x88,x89,x90,x91,x92,x93,x94,x95,x96,x97,x98,x99,x100,x101,x102,x103,x104,x105,x106,x107,x108,x109,x110,x111,x112,x113,x114,x115,x116,x117,x118,x119,x120,x121,x122,x123,x124,x125,x126,x127,x128,x129,x130,x131,x132,x133,x134,x135,x136,x137,x138,x139,x140,x141,x142,x143,x144,x145,x146,x147,x148,x149,x150,x151,x152,x153;
sos 
 SOS0: y0,y1 <= 1 ;
SOS1: y2,y3 <= 1 ;
SOS2: y4,y5 <= 1 ;
SOS3: y6,y7 <= 1 ;
SOS4: y8,y9 <= 1 ;
SOS5: y10,y11 <= 1 ;
SOS6: y12,y13 <= 1 ;
SOS7: y14,y15 <= 1 ;
SOS8: y16,y17 <= 1 ;
SOS9: y18,y19 <= 1 ;
SOS10: y20,y21 <= 1 ;
SOS11: y22,y23 <= 1 ;
SOS12: y24,y25 <= 1 ;
SOS13: y26,y27 <= 1 ;
SOS14: y28,y29 <= 1 ;
SOS15: y30,y31 <= 1 ;
SOS16: y32,y33 <= 1 ;
SOS17: y34,y35 <= 1 ;
SOS18: y36,y37 <= 1 ;
SOS19: y38,y39 <= 1 ;
SOS20: y40,y41 <= 1 ;
SOS21: y42,y43 <= 1 ;
SOS22: y44,y45 <= 1 ;
SOS23: y46,y47 <= 1 ;
SOS24: y48,y49 <= 1 ;
SOS25: y50,y51 <= 1 ;
SOS26: y52,y53 <= 1 ;
SOS27: y54,y55 <= 1 ;
SOS28: y56,y57 <= 1 ;
SOS29: y58,y59 <= 1 ;
SOS30: y60,y61 <= 1 ;
SOS31: y62,y63 <= 1 ;
SOS32: y64,y65 <= 1 ;
SOS33: y66,y67 <= 1 ;
SOS34: y68,y69 <= 1 ;
SOS35: y70,y71 <= 1 ;
SOS36: y72,y73 <= 1 ;
SOS37: y74,y75 <= 1 ;
SOS38: y76,y77 <= 1 ;
SOS39: y78,y79 <= 1 ;
SOS40: y80,y81 <= 1 ;
SOS41: y82,y83 <= 1 ;
SOS42: y84,y85 <= 1 ;
SOS43: y86,y87 <= 1 ;
SOS44: y88,y89 <= 1 ;
SOS45: y90,y91 <= 1 ;
SOS46: y92,y93 <= 1 ;
SOS47: y94,y95 <= 1 ;
SOS48: y96,y97 <= 1 ;
SOS49: y98,y99 <= 1 ;
SOS50: y100,y101 <= 1 ;
SOS51: y102,y103 <= 1 ;
SOS52: y104,y105 <= 1 ;
SOS53: y106,y107 <= 1 ;
SOS54: y108,y109 <= 1 ;
SOS55: y110,y111 <= 1 ;
SOS56: y112,y113 <= 1 ;
SOS57: y114,y115 <= 1 ;
SOS58: y116,y117 <= 1 ;
SOS59: y118,y119 <= 1 ;
SOS60: y120,y121 <= 1 ;
SOS61: y122,y123 <= 1 ;
SOS62: y124,y125 <= 1 ;
SOS63: y126,y127 <= 1 ;
SOS64: y128,y129 <= 1 ;
SOS65: y130,y131 <= 1 ;
SOS66: y132,y133 <= 1 ;
SOS67: y134,y135 <= 1 ;
SOS68: y136,y137 <= 1 ;
SOS69: y138,y139 <= 1 ;
SOS70: y140,y141 <= 1 ;
SOS71: y142,y143 <= 1 ;
SOS72: y144,y145 <= 1 ;
SOS73: y146,y147 <= 1 ;
SOS74: y148,y149 <= 1 ;
SOS75: y150,y151 <= 1 ;
SOS76: y152,y153 <= 1 ;

